; benchmark generated from python API
(set-info :status unknown)
(declare-fun S_2 () Real)
(declare-fun S_3 () Real)
(declare-fun C () Real)
(declare-fun S_4 () Real)
(declare-fun S_5 () Real)
(declare-fun A_0 () Real)
(declare-fun S_1 () Real)
(declare-fun L_0 () Real)
(declare-fun S_0 () Real)
(declare-fun L0 () Real)
(declare-fun A_5 () Real)
(declare-fun B () Real)
(declare-fun A_2 () Real)
(declare-fun A_4 () Real)
(declare-fun A_1 () Real)
(declare-fun L_1 () Real)
(declare-fun A_3 () Real)
(assert
 (let (($x42 (>= L0 0.0)))
 (let (($x373 (>= C 5.0)))
 (let ((?x318 (* (- 1.0) S_1)))
 (let ((?x600 (* (- 1.0) A_5)))
 (let ((?x658 (* (- 1.0) B)))
 (let ((?x938 (* (- 2.0) C)))
 (let (($x26088 (<= (+ (* (- 1.0) C) A_2 ?x658 ?x600 (* (- 1.0) S_2) S_5) 0.0)))
 (let (($x26055 (<= (+ (* (- 3.0) C) A_2 ?x658 ?x600 (* (- 1.0) S_0) S_5) 0.0)))
 (let (($x23308 (<= (+ (* 3.0 C) S_1 (* (- 1.0) S_5)) 0.0)))
 (let (($x6011 (>= S_5 (+ A_4 (* (- 1.0) L_0)))))
 (let (($x23310 (<= (+ (* 4.0 C) S_0 (* (- 1.0) S_5)) 0.0)))
 (let (($x1606 (not (= L_0 L_1))))
 (let (($x23358 (not (<= (+ (* (- 1.0) L_0) ?x658 ?x938 A_2 (* (- 1.0) S_0)) 0.0))))
 (let (($x47036 (or $x23310 (<= 0.0 (+ L_0 B (* 3.0 C) S_0 (* (- 1.0) A_3))) $x23358)))
 (let (($x22898 (<= (+ C S_3 (* (- 1.0) S_5)) 0.0)))
 (let (($x47388 (or (<= 0.0 (+ L_0 B S_4 (* (- 1.0) A_4))) (not (>= S_4 (+ A_1 (* (- 1.0) L_0) ?x658 (* 2.0 C)))) $x22898)))
 (let ((?x1311 (* 3.0 C)))
 (let ((?x589 (* (- 1.0) L_1)))
 (let ((?x449 (+ A_1 ?x589 ?x658 ?x1311)))
 (let (($x21802 (>= S_5 ?x449)))
 (let (($x5660 (>= S_5 (+ A_4 ?x589))))
 (let (($x23214 (<= (+ (* 2.0 C) S_2 (* (- 1.0) S_5)) 0.0)))
 (let (($x436 (<= (+ A_2 (* (- 1.0) A_1) (* (- 1.0) C)) 0.0)))
 (let ((?x454 (+ A_1 ?x589 ?x658 C)))
 (let (($x22888 (<= S_2 ?x454)))
 (let (($x47576 (or (<= (+ (* (- 1.0) L_0) ?x658 (* (- 1.0) S_4) A_3) 0.0) $x22888 $x23214)))
 (let (($x1097 (<= L_1 L_0)))
 (let (($x41 (>= L_0 L0)))
 (let (($x131 (>= S_1 S_0)))
 (let (($x134 (>= S_2 S_1)))
 (let (($x137 (>= S_3 S_2)))
 (let (($x140 (>= S_4 S_3)))
 (let (($x143 (>= S_5 S_4)))
 (let (($x146 (>= A_2 A_1)))
 (let (($x147 (>= A_3 A_2)))
 (let (($x148 (>= A_4 A_3)))
 (let (($x149 (>= A_5 A_4)))
 (and $x149 $x148 $x147 $x146 $x143 $x140 $x137 $x134 $x131 $x41 (<= (+ A_0 (* (- 1.0) L_0)) S_4) (not (<= (+ A_1 ?x589) S_4)) (or (= L_1 L_0) (<= S_1 (+ A_1 ?x589 ?x658))) (or (= L_1 L_0) (<= S_4 ?x449)) (or (= L_1 L_0) (not $x1097)) (or $x1606 (>= S_2 (+ A_1 (* (- 1.0) L_0) ?x658))) (or $x1606 (>= S_3 (+ A_1 (* (- 1.0) L_0) ?x658 C))) (or $x1606 (>= S_0 (+ ?x658 (* (- 1.0) L_0) A_1 ?x938))) (or $x1606 (<= (+ ?x658 A_1 (* (- 1.0) C)) A_0)) (or $x1606 (>= S_1 (+ ?x658 (* (- 1.0) L_0) A_1 (* (- 1.0) C)))) (>= S_2 (+ A_1 ?x589 ?x658)) (>= S_3 ?x454) (<= (+ ?x658 ?x589 A_1 (* (- 1.0) C)) (+ A_0 (* (- 1.0) L_0))) (>= S_1 (+ ?x658 ?x589 A_1 (* (- 1.0) C))) (>= S_0 (+ ?x658 ?x589 A_1 ?x938)) (or (= L_1 L_0) (<= S_0 (+ ?x658 ?x589 A_1 (* (- 1.0) C)))) (>= S_4 (+ A_1 ?x589 ?x658 (* 2.0 C))) (or $x21802 (<= (+ A_3 (* (- 1.0) A_2) (* (- 1.0) C)) 0.0)) (or $x436 $x21802) (or (= L_1 L_0) (<= S_3 (+ A_1 ?x589 ?x658 (* 2.0 C)))) (or (= L_1 L_0) $x22888) (or (= L_1 L_0) (<= S_5 (+ A_1 ?x589 ?x658 (* 4.0 C)))) (or $x1097 (<= S_5 (+ A_5 (* (- 1.0) A_2) A_1 ?x589 C))) (<= (+ (* 2.0 C) (* (- 1.0) S_4) S_1) 0.0) (<= (+ ?x938 (* (- 1.0) S_0) S_1) 0.0) (<= (+ (* (- 3.0) C) S_2 (* (- 1.0) S_0)) 0.0) (<= (+ ?x1311 (* (- 1.0) S_4) S_0) 0.0) (or (<= (+ A_3 (* (- 1.0) A_2) (* (- 1.0) C)) 0.0) $x23214) (<= (+ C (* (- 1.0) S_4) S_2) 0.0) (<= (+ L_0 ?x938 S_2 (* (- 1.0) A_0)) 0.0) (or (<= (+ A_4 (* (- 1.0) A_3) (* (- 1.0) C)) 0.0) $x23214) $x47576 (or (<= 0.0 (+ L_0 B S_2 (* (- 1.0) A_2))) $x22888 $x23214) (or $x436 $x23214) (or $x5660 $x23214) (or (<= (+ A_4 (* (- 1.0) A_3) (* (- 1.0) C)) 0.0) $x23308) (<= (+ (* (- 4.0) C) S_4 ?x318) 0.0) (<= (+ L_0 (* (- 4.0) C) S_4 (* (- 1.0) A_0)) 0.0) (<= (+ (* (- 5.0) C) S_4 (* (- 1.0) S_0)) 0.0) (or $x21802 (<= (+ A_4 (* (- 1.0) A_3) (* (- 1.0) C)) 0.0)) (or $x5660 $x21802) (<= S_5 (+ A_5 ?x589)) (<= S_5 (+ A_4 ?x589 C)) (<= (+ (* (- 4.0) C) S_3 (* (- 1.0) S_0)) 0.0) (<= (+ (* (- 6.0) C) (* (- 1.0) S_0) S_5) 0.0) (<= (+ ?x938 S_2 ?x318) 0.0) (<= (+ C (* (- 1.0) S_2) S_0) 0.0) (<= (+ L_0 (* (- 3.0) C) S_3 (* (- 1.0) A_0)) 0.0) (<= (+ (* (- 3.0) C) S_3 ?x318) 0.0) (or (<= (+ A_4 (* (- 1.0) A_3) (* (- 1.0) C)) 0.0) $x23310) $x47388 (or $x1606 $x6011 $x22898) (or (<= (+ A_3 (* (- 1.0) A_2) (* (- 1.0) C)) 0.0) $x23308) $x47036 (or $x1606 $x6011 $x23310) (<= (+ L_0 (* (- 5.0) C) S_5 (* (- 1.0) A_0)) 0.0) (or (<= S_1 (+ A_1 (* (- 1.0) L_0) ?x658)) $x6011 $x23308) (<= (+ (* (- 5.0) C) ?x318 S_5) 0.0) (<= (+ A_2 ?x658 ?x600 (* (- 1.0) S_3) S_5) 0.0) (<= (+ L_0 ?x938 A_2 ?x658 ?x600 S_5 (* (- 1.0) A_0)) 0.0) (<= (+ C A_2 ?x658 ?x600 (* (- 1.0) S_4) S_5) 0.0) $x26055 $x26088 (<= (+ ?x938 A_2 ?x658 ?x600 ?x318 S_5) 0.0) $x373 $x42 (<= (+ L_0 S_0 (* (- 1.0) A_0)) 0.0) (<= (+ ?x938 (* (- 1.0) S_4) S_5) 0.0) (<= (+ (* 2.0 C) (* (- 1.0) S_3) S_0) 0.0) (<= (+ C (* (- 1.0) S_3) S_1) 0.0) (<= (+ L_0 (* (- 1.0) C) S_1 (* (- 1.0) A_0)) 0.0) (<= (+ (* (- 3.0) C) S_4 (* (- 1.0) S_2)) 0.0) (<= (+ (* (- 3.0) C) (* (- 1.0) S_3) S_5) 0.0) (<= (+ (* (- 4.0) C) (* (- 1.0) S_2) S_5) 0.0) (<= (+ ?x938 (* (- 1.0) S_3) S_4) 0.0) (<= (+ ?x938 S_3 (* (- 1.0) S_2)) 0.0))))))))))))))))))))))))))))))))))))))))
(check-sat)
